benchmarks_vrp/CMT5/tsp_classic/CMT5_4.vrp
NAME: CMT5_4
TYPE: CVRP
COMMENT: 1291.29 - Cluster Nr.4
DIMENSION: 12
CAPACITY: 200
EDGE_WEIGHT_TYPE: EUC_2D
NODE_COORD_TYPE: TWOD_COORDS
NODE_COORD_SECTION: 
10 10 43
4 20 40
12 7 43
11 12 38
3 7 38
2 35 35
8 12 42
7 17 33
1 14 37
5 21 36
6 17 34
9 6 38
DEPOT_SECTION: 
2
-1
DEMAND_SECTION: 
4 12
11 5
5 19
7 41
8 21
1 11
3 28
12 27
2 0
6 3
9 16
10 9
EOF
