benchmarks_vrp/CMT5/tsp_classic/CMT5_4.tour
NAME: CMT5_4 solution
TYPE: TOUR
TOUR_SECTION:
2 4 8 10 12 9 3 11 1 7 6 5 -1
-1
EOF